40
1 0 1
2 0 1
3 0 1
3 1 1
3 2 1
4 0 1
4 1 1
4 2 1
4 3 1
5 1 1
5 2 1
5 3 1
5 4 1
6 2 1
6 5 1
7 1 1
7 3 1
7 5 1
8 1 1
8 2 1
8 5 1
9 0 1
9 2 1
9 5 1
9 6 1
9 7 1
9 8 1
10 0 1
10 1 1
10 7 1
10 8 1
10 9 1
11 4 1
11 7 1
11 10 1
12 2 1
12 3 1
12 5 1
12 6 1
12 7 1
12 9 1
12 10 1
12 11 1
13 1 1
13 2 1
13 4 1
13 6 1
13 7 1
13 8 1
13 10 1
14 1 1
14 3 1
14 4 1
14 5 1
14 7 1
14 8 1
14 9 1
14 10 1
15 1 1
15 3 1
15 4 1
15 5 1
15 6 1
15 10 1
15 11 1
15 13 1
15 14 1
16 1 1
16 4 1
16 6 1
16 8 1
16 10 1
16 14 1
16 15 1
17 0 1
17 1 1
17 5 1
17 6 1
17 7 1
17 8 1
17 12 1
17 13 1
17 14 1
17 15 1
18 0 1
18 6 1
18 7 1
18 8 1
18 11 1
18 13 1
18 14 1
18 17 1
19 1 1
19 3 1
19 5 1
19 7 1
19 8 1
19 9 1
19 15 1
19 16 1
19 17 1
20 1 1
20 3 1
20 5 1
20 6 1
20 8 1
20 9 1
20 10 1
20 12 1
20 14 1
20 15 1
20 16 1
20 17 1
20 18 1
21 0 1
21 2 1
21 5 1
21 11 1
21 12 1
21 17 1
22 0 1
22 1 1
22 4 1
22 7 1
22 9 1
22 14 1
22 16 1
22 18 1
22 19 1
22 20 1
23 1 1
23 3 1
23 5 1
23 6 1
23 16 1
23 17 1
23 20 1
23 21 1
24 0 1
24 2 1
24 3 1
24 4 1
24 5 1
24 6 1
24 7 1
24 14 1
24 15 1
24 18 1
24 19 1
24 20 1
25 0 1
25 3 1
25 9 1
25 10 1
25 12 1
25 16 1
25 17 1
25 19 1
25 20 1
25 21 1
25 22 1
26 1 1
26 3 1
26 5 1
26 6 1
26 12 1
26 13 1
26 14 1
26 15 1
26 18 1
26 19 1
26 21 1
26 22 1
26 25 1
27 0 1
27 1 1
27 2 1
27 3 1
27 6 1
27 7 1
27 9 1
27 10 1
27 11 1
27 17 1
27 19 1
27 20 1
27 21 1
27 22 1
27 24 1
27 26 1
28 3 1
28 4 1
28 5 1
28 8 1
28 11 1
28 17 1
28 18 1
28 19 1
28 21 1
28 22 1
28 23 1
28 27 1
29 0 1
29 1 1
29 2 1
29 3 1
29 4 1
29 5 1
29 8 1
29 9 1
29 10 1
29 11 1
29 12 1
29 13 1
29 15 1
29 17 1
29 19 1
29 20 1
29 21 1
29 23 1
29 24 1
29 25 1
29 28 1
30 1 1
30 3 1
30 4 1
30 11 1
30 12 1
30 14 1
30 15 1
30 17 1
30 24 1
30 25 1
30 28 1
30 29 1
31 2 1
31 4 1
31 7 1
31 10 1
31 13 1
31 16 1
31 17 1
31 18 1
31 21 1
31 23 1
31 24 1
31 25 1
31 26 1
31 27 1
31 28 1
31 29 1
32 1 1
32 3 1
32 6 1
32 7 1
32 8 1
32 10 1
32 11 1
32 13 1
32 14 1
32 18 1
32 19 1
32 20 1
32 24 1
32 25 1
33 0 1
33 2 1
33 3 1
33 5 1
33 6 1
33 8 1
33 9 1
33 13 1
33 16 1
33 18 1
33 21 1
33 22 1
33 24 1
33 28 1
33 29 1
33 30 1
33 31 1
33 32 1
34 1 1
34 2 1
34 3 1
34 4 1
34 8 1
34 9 1
34 11 1
34 13 1
34 15 1
34 17 1
34 18 1
34 19 1
34 21 1
34 22 1
34 25 1
34 27 1
34 29 1
34 32 1
35 1 1
35 2 1
35 3 1
35 8 1
35 11 1
35 12 1
35 13 1
35 16 1
35 17 1
35 18 1
35 23 1
35 24 1
35 25 1
35 26 1
35 28 1
35 29 1
35 30 1
35 31 1
35 34 1
36 1 1
36 2 1
36 5 1
36 6 1
36 8 1
36 12 1
36 14 1
36 17 1
36 19 1
36 22 1
36 23 1
36 24 1
36 25 1
36 26 1
36 28 1
36 30 1
36 32 1
36 35 1
37 0 1
37 1 1
37 2 1
37 4 1
37 6 1
37 10 1
37 14 1
37 15 1
37 16 1
37 18 1
37 19 1
37 22 1
37 23 1
37 26 1
37 27 1
37 28 1
37 30 1
37 31 1
37 32 1
37 33 1
37 34 1
37 35 1
37 36 1
38 0 1
38 1 1
38 4 1
38 7 1
38 12 1
38 13 1
38 19 1
38 21 1
38 22 1
38 23 1
38 27 1
38 28 1
38 34 1
38 35 1
38 37 1
39 0 1
39 2 1
39 3 1
39 6 1
39 7 1
39 8 1
39 16 1
39 18 1
39 19 1
39 20 1
39 22 1
39 25 1
39 26 1
39 30 1
39 31 1
39 32 1
39 33 1
39 34 1
39 36 1
39 37 1
39 38 1
